
Gurobi 7.5.1 (win64, Python) logging started 08/16/17 18:44:26


Gurobi 7.5.1 (win64, Python) logging started 08/16/17 18:44:42

Optimize a model with 3 rows, 2 columns and 6 nonzeros
Coefficient statistics:
  Matrix range     [1e+00, 3e+02]
  Objective range  [2e+00, 4e+00]
  Bounds range     [0e+00, 0e+00]
  RHS range        [3e+01, 5e+03]
Presolve removed 1 rows and 0 columns
Presolve time: 0.00s
Presolved: 2 rows, 2 columns, 4 nonzeros

Iteration    Objective       Primal Inf.    Dual Inf.      Time
       0    9.6000000e+01   6.598300e+01   0.000000e+00      0s
       2    3.7333333e+01   0.000000e+00   0.000000e+00      0s

Solved in 2 iterations and 0.00 seconds
Optimal objective  3.733333333e+01

Gurobi 7.5.1 (win64, Python) logging started 08/16/17 18:59:38


Gurobi 7.5.1 (win64, Python) logging started 08/16/17 18:59:54

Optimize a model with 3 rows, 2 columns and 6 nonzeros
Coefficient statistics:
  Matrix range     [1e+00, 3e+02]
  Objective range  [2e+00, 4e+00]
  Bounds range     [0e+00, 0e+00]
  RHS range        [3e+01, 5e+03]
Presolve removed 1 rows and 0 columns
Presolve time: 0.00s
Presolved: 2 rows, 2 columns, 4 nonzeros

Iteration    Objective       Primal Inf.    Dual Inf.      Time
       0    9.6000000e+01   6.598300e+01   0.000000e+00      0s
       2    3.7333333e+01   0.000000e+00   0.000000e+00      0s

Solved in 2 iterations and 0.00 seconds
Optimal objective  3.733333333e+01

Gurobi 7.5.1 (win64, Python) logging started 08/16/17 19:00:10

Optimize a model with 3 rows, 2 columns and 6 nonzeros
Coefficient statistics:
  Matrix range     [1e+00, 3e+02]
  Objective range  [2e+00, 4e+00]
  Bounds range     [0e+00, 0e+00]
  RHS range        [3e+01, 5e+03]
Presolve removed 1 rows and 0 columns
Presolve time: 0.00s
Presolved: 2 rows, 2 columns, 4 nonzeros

Iteration    Objective       Primal Inf.    Dual Inf.      Time
       0    9.6000000e+01   6.598300e+01   0.000000e+00      0s
       2    3.7333333e+01   0.000000e+00   0.000000e+00      0s

Solved in 2 iterations and 0.00 seconds
Optimal objective  3.733333333e+01

Gurobi 7.5.1 (win64, Python) logging started 08/16/17 19:01:17

Optimize a model with 3 rows, 2 columns and 6 nonzeros
Coefficient statistics:
  Matrix range     [2e-01, 5e+01]
  Objective range  [2e+00, 4e+00]
  Bounds range     [0e+00, 0e+00]
  RHS range        [5e+00, 5e+02]
Presolve removed 1 rows and 0 columns
Presolve time: 0.00s
Presolved: 2 rows, 2 columns, 4 nonzeros

Iteration    Objective       Primal Inf.    Dual Inf.      Time
       0    6.0000000e+01   1.453076e+02   0.000000e+00      0s
       2    3.7333333e+01   0.000000e+00   0.000000e+00      0s

Solved in 2 iterations and 0.00 seconds
Optimal objective  3.733333333e+01
